(set-logic QF_LRA)
(declare-fun T1 () Real )
(declare-fun T2 () Real )
(declare-fun T3 () Real )
(declare-fun T4 () Real )
(declare-fun T5 () Real )
(declare-fun T6 () Real )
(declare-fun T7 () Real )
(declare-fun T8 () Real )
(declare-fun T9 () Real )
(declare-fun T10 () Real )
(declare-fun Z () Real )
(declare-fun k () Real )
(assert (let
(( $goal (>= Z k) ))
(let
((
$phi ( and 
(or ( <= ( + T1 73 ) T2 ) ( <= ( + T2 22 ) T1 ) )
(or ( <= ( + T1 159 )  ( + T2 22 ) ) ( <= ( + T2 46 )( + T1 73 ) ) )
(or ( <= ( + T1 224 )  ( + T2 46 ) ) ( <= ( + T2 65 )( + T1 159 ) ) )
(or ( <= ( + T1 288 )  ( + T2 65 ) ) ( <= ( + T2 164 )( + T1 224 ) ) )
(or ( <= ( + T1 346 )  ( + T2 164 ) ) ( <= ( + T2 180 )( + T1 288 ) ) )
(or ( <= ( + T1 347 )  ( + T2 180 ) ) ( <= ( + T2 203 )( + T1 346 ) ) )
(or ( <= ( + T1 435 )  ( + T2 203 ) ) ( <= ( + T2 292 )( + T1 347 ) ) )
(or ( <= ( + T1 470 )  ( + T2 292 ) ) ( <= ( + T2 365 )( + T1 435 ) ) )
(or ( <= ( + T1 541 )  ( + T2 365 ) ) ( <= ( + T2 368 )( + T1 470 ) ) )
(or ( <= ( + T1 599 )  ( + T2 368 ) ) ( <= ( + T2 387 )( + T1 541 ) ) )
(or ( <= ( + T1 694 )  ( + T2 387 ) ) ( <= ( + T2 459 )( + T1 599 ) ) )
(or ( <= ( + T1 715 )  ( + T2 459 ) ) ( <= ( + T2 490 )( + T1 694 ) ) )
(or ( <= ( + T1 73 ) T3 ) ( <= ( + T3 61 ) T1 ) )
(or ( <= ( + T1 159 )  ( + T3 61 ) ) ( <= ( + T3 99 )( + T1 73 ) ) )
(or ( <= ( + T1 224 )  ( + T3 99 ) ) ( <= ( + T3 178 )( + T1 159 ) ) )
(or ( <= ( + T1 288 )  ( + T3 178 ) ) ( <= ( + T3 269 )( + T1 224 ) ) )
(or ( <= ( + T1 346 )  ( + T3 269 ) ) ( <= ( + T3 298 )( + T1 288 ) ) )
(or ( <= ( + T1 347 )  ( + T3 298 ) ) ( <= ( + T3 303 )( + T1 346 ) ) )
(or ( <= ( + T1 435 )  ( + T3 303 ) ) ( <= ( + T3 368 )( + T1 347 ) ) )
(or ( <= ( + T1 470 )  ( + T3 368 ) ) ( <= ( + T3 370 )( + T1 435 ) ) )
(or ( <= ( + T1 541 )  ( + T3 370 ) ) ( <= ( + T3 460 )( + T1 470 ) ) )
(or ( <= ( + T1 599 )  ( + T3 460 ) ) ( <= ( + T3 490 )( + T1 541 ) ) )
(or ( <= ( + T1 694 )  ( + T3 490 ) ) ( <= ( + T3 507 )( + T1 599 ) ) )
(or ( <= ( + T1 715 )  ( + T3 507 ) ) ( <= ( + T3 606 )( + T1 694 ) ) )
(or ( <= ( + T1 73 ) T4 ) ( <= ( + T4 30 ) T1 ) )
(or ( <= ( + T1 159 )  ( + T4 30 ) ) ( <= ( + T4 34 )( + T1 73 ) ) )
(or ( <= ( + T1 224 )  ( + T4 34 ) ) ( <= ( + T4 67 )( + T1 159 ) ) )
(or ( <= ( + T1 288 )  ( + T4 67 ) ) ( <= ( + T4 167 )( + T1 224 ) ) )
(or ( <= ( + T1 346 )  ( + T4 167 ) ) ( <= ( + T4 229 )( + T1 288 ) ) )
(or ( <= ( + T1 347 )  ( + T4 229 ) ) ( <= ( + T4 256 )( + T1 346 ) ) )
(or ( <= ( + T1 435 )  ( + T4 256 ) ) ( <= ( + T4 328 )( + T1 347 ) ) )
(or ( <= ( + T1 470 )  ( + T4 328 ) ) ( <= ( + T4 363 )( + T1 435 ) ) )
(or ( <= ( + T1 541 )  ( + T4 363 ) ) ( <= ( + T4 365 )( + T1 470 ) ) )
(or ( <= ( + T1 599 )  ( + T4 365 ) ) ( <= ( + T4 455 )( + T1 541 ) ) )
(or ( <= ( + T1 694 )  ( + T4 455 ) ) ( <= ( + T4 488 )( + T1 599 ) ) )
(or ( <= ( + T1 715 )  ( + T4 488 ) ) ( <= ( + T4 558 )( + T1 694 ) ) )
(or ( <= ( + T1 73 ) T5 ) ( <= ( + T5 64 ) T1 ) )
(or ( <= ( + T1 159 )  ( + T5 64 ) ) ( <= ( + T5 85 )( + T1 73 ) ) )
(or ( <= ( + T1 224 )  ( + T5 85 ) ) ( <= ( + T5 179 )( + T1 159 ) ) )
(or ( <= ( + T1 288 )  ( + T5 179 ) ) ( <= ( + T5 198 )( + T1 224 ) ) )
(or ( <= ( + T1 346 )  ( + T5 198 ) ) ( <= ( + T5 289 )( + T1 288 ) ) )
(or ( <= ( + T1 347 )  ( + T5 289 ) ) ( <= ( + T5 355 )( + T1 346 ) ) )
(or ( <= ( + T1 435 )  ( + T5 355 ) ) ( <= ( + T5 356 )( + T1 347 ) ) )
(or ( <= ( + T1 470 )  ( + T5 356 ) ) ( <= ( + T5 408 )( + T1 435 ) ) )
(or ( <= ( + T1 541 )  ( + T5 408 ) ) ( <= ( + T5 463 )( + T1 470 ) ) )
(or ( <= ( + T1 599 )  ( + T5 463 ) ) ( <= ( + T5 542 )( + T1 541 ) ) )
(or ( <= ( + T1 694 )  ( + T5 542 ) ) ( <= ( + T5 636 )( + T1 599 ) ) )
(or ( <= ( + T1 715 )  ( + T5 636 ) ) ( <= ( + T5 720 )( + T1 694 ) ) )
(or ( <= ( + T1 73 ) T6 ) ( <= ( + T6 35 ) T1 ) )
(or ( <= ( + T1 159 )  ( + T6 35 ) ) ( <= ( + T6 94 )( + T1 73 ) ) )
(or ( <= ( + T1 224 )  ( + T6 94 ) ) ( <= ( + T6 131 )( + T1 159 ) ) )
(or ( <= ( + T1 288 )  ( + T6 131 ) ) ( <= ( + T6 207 )( + T1 224 ) ) )
(or ( <= ( + T1 346 )  ( + T6 207 ) ) ( <= ( + T6 295 )( + T1 288 ) ) )
(or ( <= ( + T1 347 )  ( + T6 295 ) ) ( <= ( + T6 348 )( + T1 346 ) ) )
(or ( <= ( + T1 435 )  ( + T6 348 ) ) ( <= ( + T6 422 )( + T1 347 ) ) )
(or ( <= ( + T1 470 )  ( + T6 422 ) ) ( <= ( + T6 491 )( + T1 435 ) ) )
(or ( <= ( + T1 541 )  ( + T6 491 ) ) ( <= ( + T6 547 )( + T1 470 ) ) )
(or ( <= ( + T1 599 )  ( + T6 547 ) ) ( <= ( + T6 606 )( + T1 541 ) ) )
(or ( <= ( + T1 694 )  ( + T6 606 ) ) ( <= ( + T6 626 )( + T1 599 ) ) )
(or ( <= ( + T1 715 )  ( + T6 626 ) ) ( <= ( + T6 695 )( + T1 694 ) ) )
(or ( <= ( + T1 73 ) T7 ) ( <= ( + T7 37 ) T1 ) )
(or ( <= ( + T1 159 )  ( + T7 37 ) ) ( <= ( + T7 128 )( + T1 73 ) ) )
(or ( <= ( + T1 224 )  ( + T7 128 ) ) ( <= ( + T7 132 )( + T1 159 ) ) )
(or ( <= ( + T1 288 )  ( + T7 132 ) ) ( <= ( + T7 171 )( + T1 224 ) ) )
(or ( <= ( + T1 346 )  ( + T7 171 ) ) ( <= ( + T7 204 )( + T1 288 ) ) )
(or ( <= ( + T1 347 )  ( + T7 204 ) ) ( <= ( + T7 292 )( + T1 346 ) ) )
(or ( <= ( + T1 435 )  ( + T7 292 ) ) ( <= ( + T7 300 )( + T1 347 ) ) )
(or ( <= ( + T1 470 )  ( + T7 300 ) ) ( <= ( + T7 348 )( + T1 435 ) ) )
(or ( <= ( + T1 541 )  ( + T7 348 ) ) ( <= ( + T7 357 )( + T1 470 ) ) )
(or ( <= ( + T1 599 )  ( + T7 357 ) ) ( <= ( + T7 410 )( + T1 541 ) ) )
(or ( <= ( + T1 694 )  ( + T7 410 ) ) ( <= ( + T7 476 )( + T1 599 ) ) )
(or ( <= ( + T1 715 )  ( + T7 476 ) ) ( <= ( + T7 527 )( + T1 694 ) ) )
(or ( <= ( + T1 73 ) T8 ) ( <= ( + T8 18 ) T1 ) )
(or ( <= ( + T1 159 )  ( + T8 18 ) ) ( <= ( + T8 36 )( + T1 73 ) ) )
(or ( <= ( + T1 224 )  ( + T8 36 ) ) ( <= ( + T8 38 )( + T1 159 ) ) )
(or ( <= ( + T1 288 )  ( + T8 38 ) ) ( <= ( + T8 63 )( + T1 224 ) ) )
(or ( <= ( + T1 346 )  ( + T8 63 ) ) ( <= ( + T8 111 )( + T1 288 ) ) )
(or ( <= ( + T1 347 )  ( + T8 111 ) ) ( <= ( + T8 159 )( + T1 346 ) ) )
(or ( <= ( + T1 435 )  ( + T8 159 ) ) ( <= ( + T8 167 )( + T1 347 ) ) )
(or ( <= ( + T1 470 )  ( + T8 167 ) ) ( <= ( + T8 249 )( + T1 435 ) ) )
(or ( <= ( + T1 541 )  ( + T8 249 ) ) ( <= ( + T8 255 )( + T1 470 ) ) )
(or ( <= ( + T1 599 )  ( + T8 255 ) ) ( <= ( + T8 351 )( + T1 541 ) ) )
(or ( <= ( + T1 694 )  ( + T8 351 ) ) ( <= ( + T8 360 )( + T1 599 ) ) )
(or ( <= ( + T1 715 )  ( + T8 360 ) ) ( <= ( + T8 405 )( + T1 694 ) ) )
(or ( <= ( + T1 73 ) T9 ) ( <= ( + T9 48 ) T1 ) )
(or ( <= ( + T1 159 )  ( + T9 48 ) ) ( <= ( + T9 83 )( + T1 73 ) ) )
(or ( <= ( + T1 224 )  ( + T9 83 ) ) ( <= ( + T9 148 )( + T1 159 ) ) )
(or ( <= ( + T1 288 )  ( + T9 148 ) ) ( <= ( + T9 203 )( + T1 224 ) ) )
(or ( <= ( + T1 346 )  ( + T9 203 ) ) ( <= ( + T9 296 )( + T1 288 ) ) )
(or ( <= ( + T1 347 )  ( + T9 296 ) ) ( <= ( + T9 380 )( + T1 346 ) ) )
(or ( <= ( + T1 435 )  ( + T9 380 ) ) ( <= ( + T9 456 )( + T1 347 ) ) )
(or ( <= ( + T1 470 )  ( + T9 456 ) ) ( <= ( + T9 485 )( + T1 435 ) ) )
(or ( <= ( + T1 541 )  ( + T9 485 ) ) ( <= ( + T9 511 )( + T1 470 ) ) )
(or ( <= ( + T1 599 )  ( + T9 511 ) ) ( <= ( + T9 590 )( + T1 541 ) ) )
(or ( <= ( + T1 694 )  ( + T9 590 ) ) ( <= ( + T9 609 )( + T1 599 ) ) )
(or ( <= ( + T1 715 )  ( + T9 609 ) ) ( <= ( + T9 619 )( + T1 694 ) ) )
(or ( <= ( + T1 73 ) T10 ) ( <= ( + T10 18 ) T1 ) )
(or ( <= ( + T1 159 )  ( + T10 18 ) ) ( <= ( + T10 96 )( + T1 73 ) ) )
(or ( <= ( + T1 224 )  ( + T10 96 ) ) ( <= ( + T10 154 )( + T1 159 ) ) )
(or ( <= ( + T1 288 )  ( + T10 154 ) ) ( <= ( + T10 180 )( + T1 224 ) ) )
(or ( <= ( + T1 346 )  ( + T10 180 ) ) ( <= ( + T10 211 )( + T1 288 ) ) )
(or ( <= ( + T1 347 )  ( + T10 211 ) ) ( <= ( + T10 286 )( + T1 346 ) ) )
(or ( <= ( + T1 435 )  ( + T10 286 ) ) ( <= ( + T10 363 )( + T1 347 ) ) )
(or ( <= ( + T1 470 )  ( + T10 363 ) ) ( <= ( + T10 463 )( + T1 435 ) ) )
(or ( <= ( + T1 541 )  ( + T10 463 ) ) ( <= ( + T10 556 )( + T1 470 ) ) )
(or ( <= ( + T1 599 )  ( + T10 556 ) ) ( <= ( + T10 586 )( + T1 541 ) ) )
(or ( <= ( + T1 694 )  ( + T10 586 ) ) ( <= ( + T10 610 )( + T1 599 ) ) )
(or ( <= ( + T1 715 )  ( + T10 610 ) ) ( <= ( + T10 650 )( + T1 694 ) ) )
(or ( <= ( + T2 22 ) T3 ) ( <= ( + T3 61 ) T2 ) )
(or ( <= ( + T2 46 )  ( + T3 61 ) ) ( <= ( + T3 99 )( + T2 22 ) ) )
(or ( <= ( + T2 65 )  ( + T3 99 ) ) ( <= ( + T3 178 )( + T2 46 ) ) )
(or ( <= ( + T2 164 )  ( + T3 178 ) ) ( <= ( + T3 269 )( + T2 65 ) ) )
(or ( <= ( + T2 180 )  ( + T3 269 ) ) ( <= ( + T3 298 )( + T2 164 ) ) )
(or ( <= ( + T2 203 )  ( + T3 298 ) ) ( <= ( + T3 303 )( + T2 180 ) ) )
(or ( <= ( + T2 292 )  ( + T3 303 ) ) ( <= ( + T3 368 )( + T2 203 ) ) )
(or ( <= ( + T2 365 )  ( + T3 368 ) ) ( <= ( + T3 370 )( + T2 292 ) ) )
(or ( <= ( + T2 368 )  ( + T3 370 ) ) ( <= ( + T3 460 )( + T2 365 ) ) )
(or ( <= ( + T2 387 )  ( + T3 460 ) ) ( <= ( + T3 490 )( + T2 368 ) ) )
(or ( <= ( + T2 459 )  ( + T3 490 ) ) ( <= ( + T3 507 )( + T2 387 ) ) )
(or ( <= ( + T2 490 )  ( + T3 507 ) ) ( <= ( + T3 606 )( + T2 459 ) ) )
(or ( <= ( + T2 22 ) T4 ) ( <= ( + T4 30 ) T2 ) )
(or ( <= ( + T2 46 )  ( + T4 30 ) ) ( <= ( + T4 34 )( + T2 22 ) ) )
(or ( <= ( + T2 65 )  ( + T4 34 ) ) ( <= ( + T4 67 )( + T2 46 ) ) )
(or ( <= ( + T2 164 )  ( + T4 67 ) ) ( <= ( + T4 167 )( + T2 65 ) ) )
(or ( <= ( + T2 180 )  ( + T4 167 ) ) ( <= ( + T4 229 )( + T2 164 ) ) )
(or ( <= ( + T2 203 )  ( + T4 229 ) ) ( <= ( + T4 256 )( + T2 180 ) ) )
(or ( <= ( + T2 292 )  ( + T4 256 ) ) ( <= ( + T4 328 )( + T2 203 ) ) )
(or ( <= ( + T2 365 )  ( + T4 328 ) ) ( <= ( + T4 363 )( + T2 292 ) ) )
(or ( <= ( + T2 368 )  ( + T4 363 ) ) ( <= ( + T4 365 )( + T2 365 ) ) )
(or ( <= ( + T2 387 )  ( + T4 365 ) ) ( <= ( + T4 455 )( + T2 368 ) ) )
(or ( <= ( + T2 459 )  ( + T4 455 ) ) ( <= ( + T4 488 )( + T2 387 ) ) )
(or ( <= ( + T2 490 )  ( + T4 488 ) ) ( <= ( + T4 558 )( + T2 459 ) ) )
(or ( <= ( + T2 22 ) T5 ) ( <= ( + T5 64 ) T2 ) )
(or ( <= ( + T2 46 )  ( + T5 64 ) ) ( <= ( + T5 85 )( + T2 22 ) ) )
(or ( <= ( + T2 65 )  ( + T5 85 ) ) ( <= ( + T5 179 )( + T2 46 ) ) )
(or ( <= ( + T2 164 )  ( + T5 179 ) ) ( <= ( + T5 198 )( + T2 65 ) ) )
(or ( <= ( + T2 180 )  ( + T5 198 ) ) ( <= ( + T5 289 )( + T2 164 ) ) )
(or ( <= ( + T2 203 )  ( + T5 289 ) ) ( <= ( + T5 355 )( + T2 180 ) ) )
(or ( <= ( + T2 292 )  ( + T5 355 ) ) ( <= ( + T5 356 )( + T2 203 ) ) )
(or ( <= ( + T2 365 )  ( + T5 356 ) ) ( <= ( + T5 408 )( + T2 292 ) ) )
(or ( <= ( + T2 368 )  ( + T5 408 ) ) ( <= ( + T5 463 )( + T2 365 ) ) )
(or ( <= ( + T2 387 )  ( + T5 463 ) ) ( <= ( + T5 542 )( + T2 368 ) ) )
(or ( <= ( + T2 459 )  ( + T5 542 ) ) ( <= ( + T5 636 )( + T2 387 ) ) )
(or ( <= ( + T2 490 )  ( + T5 636 ) ) ( <= ( + T5 720 )( + T2 459 ) ) )
(or ( <= ( + T2 22 ) T6 ) ( <= ( + T6 35 ) T2 ) )
(or ( <= ( + T2 46 )  ( + T6 35 ) ) ( <= ( + T6 94 )( + T2 22 ) ) )
(or ( <= ( + T2 65 )  ( + T6 94 ) ) ( <= ( + T6 131 )( + T2 46 ) ) )
(or ( <= ( + T2 164 )  ( + T6 131 ) ) ( <= ( + T6 207 )( + T2 65 ) ) )
(or ( <= ( + T2 180 )  ( + T6 207 ) ) ( <= ( + T6 295 )( + T2 164 ) ) )
(or ( <= ( + T2 203 )  ( + T6 295 ) ) ( <= ( + T6 348 )( + T2 180 ) ) )
(or ( <= ( + T2 292 )  ( + T6 348 ) ) ( <= ( + T6 422 )( + T2 203 ) ) )
(or ( <= ( + T2 365 )  ( + T6 422 ) ) ( <= ( + T6 491 )( + T2 292 ) ) )
(or ( <= ( + T2 368 )  ( + T6 491 ) ) ( <= ( + T6 547 )( + T2 365 ) ) )
(or ( <= ( + T2 387 )  ( + T6 547 ) ) ( <= ( + T6 606 )( + T2 368 ) ) )
(or ( <= ( + T2 459 )  ( + T6 606 ) ) ( <= ( + T6 626 )( + T2 387 ) ) )
(or ( <= ( + T2 490 )  ( + T6 626 ) ) ( <= ( + T6 695 )( + T2 459 ) ) )
(or ( <= ( + T2 22 ) T7 ) ( <= ( + T7 37 ) T2 ) )
(or ( <= ( + T2 46 )  ( + T7 37 ) ) ( <= ( + T7 128 )( + T2 22 ) ) )
(or ( <= ( + T2 65 )  ( + T7 128 ) ) ( <= ( + T7 132 )( + T2 46 ) ) )
(or ( <= ( + T2 164 )  ( + T7 132 ) ) ( <= ( + T7 171 )( + T2 65 ) ) )
(or ( <= ( + T2 180 )  ( + T7 171 ) ) ( <= ( + T7 204 )( + T2 164 ) ) )
(or ( <= ( + T2 203 )  ( + T7 204 ) ) ( <= ( + T7 292 )( + T2 180 ) ) )
(or ( <= ( + T2 292 )  ( + T7 292 ) ) ( <= ( + T7 300 )( + T2 203 ) ) )
(or ( <= ( + T2 365 )  ( + T7 300 ) ) ( <= ( + T7 348 )( + T2 292 ) ) )
(or ( <= ( + T2 368 )  ( + T7 348 ) ) ( <= ( + T7 357 )( + T2 365 ) ) )
(or ( <= ( + T2 387 )  ( + T7 357 ) ) ( <= ( + T7 410 )( + T2 368 ) ) )
(or ( <= ( + T2 459 )  ( + T7 410 ) ) ( <= ( + T7 476 )( + T2 387 ) ) )
(or ( <= ( + T2 490 )  ( + T7 476 ) ) ( <= ( + T7 527 )( + T2 459 ) ) )
(or ( <= ( + T2 22 ) T8 ) ( <= ( + T8 18 ) T2 ) )
(or ( <= ( + T2 46 )  ( + T8 18 ) ) ( <= ( + T8 36 )( + T2 22 ) ) )
(or ( <= ( + T2 65 )  ( + T8 36 ) ) ( <= ( + T8 38 )( + T2 46 ) ) )
(or ( <= ( + T2 164 )  ( + T8 38 ) ) ( <= ( + T8 63 )( + T2 65 ) ) )
(or ( <= ( + T2 180 )  ( + T8 63 ) ) ( <= ( + T8 111 )( + T2 164 ) ) )
(or ( <= ( + T2 203 )  ( + T8 111 ) ) ( <= ( + T8 159 )( + T2 180 ) ) )
(or ( <= ( + T2 292 )  ( + T8 159 ) ) ( <= ( + T8 167 )( + T2 203 ) ) )
(or ( <= ( + T2 365 )  ( + T8 167 ) ) ( <= ( + T8 249 )( + T2 292 ) ) )
(or ( <= ( + T2 368 )  ( + T8 249 ) ) ( <= ( + T8 255 )( + T2 365 ) ) )
(or ( <= ( + T2 387 )  ( + T8 255 ) ) ( <= ( + T8 351 )( + T2 368 ) ) )
(or ( <= ( + T2 459 )  ( + T8 351 ) ) ( <= ( + T8 360 )( + T2 387 ) ) )
(or ( <= ( + T2 490 )  ( + T8 360 ) ) ( <= ( + T8 405 )( + T2 459 ) ) )
(or ( <= ( + T2 22 ) T9 ) ( <= ( + T9 48 ) T2 ) )
(or ( <= ( + T2 46 )  ( + T9 48 ) ) ( <= ( + T9 83 )( + T2 22 ) ) )
(or ( <= ( + T2 65 )  ( + T9 83 ) ) ( <= ( + T9 148 )( + T2 46 ) ) )
(or ( <= ( + T2 164 )  ( + T9 148 ) ) ( <= ( + T9 203 )( + T2 65 ) ) )
(or ( <= ( + T2 180 )  ( + T9 203 ) ) ( <= ( + T9 296 )( + T2 164 ) ) )
(or ( <= ( + T2 203 )  ( + T9 296 ) ) ( <= ( + T9 380 )( + T2 180 ) ) )
(or ( <= ( + T2 292 )  ( + T9 380 ) ) ( <= ( + T9 456 )( + T2 203 ) ) )
(or ( <= ( + T2 365 )  ( + T9 456 ) ) ( <= ( + T9 485 )( + T2 292 ) ) )
(or ( <= ( + T2 368 )  ( + T9 485 ) ) ( <= ( + T9 511 )( + T2 365 ) ) )
(or ( <= ( + T2 387 )  ( + T9 511 ) ) ( <= ( + T9 590 )( + T2 368 ) ) )
(or ( <= ( + T2 459 )  ( + T9 590 ) ) ( <= ( + T9 609 )( + T2 387 ) ) )
(or ( <= ( + T2 490 )  ( + T9 609 ) ) ( <= ( + T9 619 )( + T2 459 ) ) )
(or ( <= ( + T2 22 ) T10 ) ( <= ( + T10 18 ) T2 ) )
(or ( <= ( + T2 46 )  ( + T10 18 ) ) ( <= ( + T10 96 )( + T2 22 ) ) )
(or ( <= ( + T2 65 )  ( + T10 96 ) ) ( <= ( + T10 154 )( + T2 46 ) ) )
(or ( <= ( + T2 164 )  ( + T10 154 ) ) ( <= ( + T10 180 )( + T2 65 ) ) )
(or ( <= ( + T2 180 )  ( + T10 180 ) ) ( <= ( + T10 211 )( + T2 164 ) ) )
(or ( <= ( + T2 203 )  ( + T10 211 ) ) ( <= ( + T10 286 )( + T2 180 ) ) )
(or ( <= ( + T2 292 )  ( + T10 286 ) ) ( <= ( + T10 363 )( + T2 203 ) ) )
(or ( <= ( + T2 365 )  ( + T10 363 ) ) ( <= ( + T10 463 )( + T2 292 ) ) )
(or ( <= ( + T2 368 )  ( + T10 463 ) ) ( <= ( + T10 556 )( + T2 365 ) ) )
(or ( <= ( + T2 387 )  ( + T10 556 ) ) ( <= ( + T10 586 )( + T2 368 ) ) )
(or ( <= ( + T2 459 )  ( + T10 586 ) ) ( <= ( + T10 610 )( + T2 387 ) ) )
(or ( <= ( + T2 490 )  ( + T10 610 ) ) ( <= ( + T10 650 )( + T2 459 ) ) )
(or ( <= ( + T3 61 ) T4 ) ( <= ( + T4 30 ) T3 ) )
(or ( <= ( + T3 99 )  ( + T4 30 ) ) ( <= ( + T4 34 )( + T3 61 ) ) )
(or ( <= ( + T3 178 )  ( + T4 34 ) ) ( <= ( + T4 67 )( + T3 99 ) ) )
(or ( <= ( + T3 269 )  ( + T4 67 ) ) ( <= ( + T4 167 )( + T3 178 ) ) )
(or ( <= ( + T3 298 )  ( + T4 167 ) ) ( <= ( + T4 229 )( + T3 269 ) ) )
(or ( <= ( + T3 303 )  ( + T4 229 ) ) ( <= ( + T4 256 )( + T3 298 ) ) )
(or ( <= ( + T3 368 )  ( + T4 256 ) ) ( <= ( + T4 328 )( + T3 303 ) ) )
(or ( <= ( + T3 370 )  ( + T4 328 ) ) ( <= ( + T4 363 )( + T3 368 ) ) )
(or ( <= ( + T3 460 )  ( + T4 363 ) ) ( <= ( + T4 365 )( + T3 370 ) ) )
(or ( <= ( + T3 490 )  ( + T4 365 ) ) ( <= ( + T4 455 )( + T3 460 ) ) )
(or ( <= ( + T3 507 )  ( + T4 455 ) ) ( <= ( + T4 488 )( + T3 490 ) ) )
(or ( <= ( + T3 606 )  ( + T4 488 ) ) ( <= ( + T4 558 )( + T3 507 ) ) )
(or ( <= ( + T3 61 ) T5 ) ( <= ( + T5 64 ) T3 ) )
(or ( <= ( + T3 99 )  ( + T5 64 ) ) ( <= ( + T5 85 )( + T3 61 ) ) )
(or ( <= ( + T3 178 )  ( + T5 85 ) ) ( <= ( + T5 179 )( + T3 99 ) ) )
(or ( <= ( + T3 269 )  ( + T5 179 ) ) ( <= ( + T5 198 )( + T3 178 ) ) )
(or ( <= ( + T3 298 )  ( + T5 198 ) ) ( <= ( + T5 289 )( + T3 269 ) ) )
(or ( <= ( + T3 303 )  ( + T5 289 ) ) ( <= ( + T5 355 )( + T3 298 ) ) )
(or ( <= ( + T3 368 )  ( + T5 355 ) ) ( <= ( + T5 356 )( + T3 303 ) ) )
(or ( <= ( + T3 370 )  ( + T5 356 ) ) ( <= ( + T5 408 )( + T3 368 ) ) )
(or ( <= ( + T3 460 )  ( + T5 408 ) ) ( <= ( + T5 463 )( + T3 370 ) ) )
(or ( <= ( + T3 490 )  ( + T5 463 ) ) ( <= ( + T5 542 )( + T3 460 ) ) )
(or ( <= ( + T3 507 )  ( + T5 542 ) ) ( <= ( + T5 636 )( + T3 490 ) ) )
(or ( <= ( + T3 606 )  ( + T5 636 ) ) ( <= ( + T5 720 )( + T3 507 ) ) )
(or ( <= ( + T3 61 ) T6 ) ( <= ( + T6 35 ) T3 ) )
(or ( <= ( + T3 99 )  ( + T6 35 ) ) ( <= ( + T6 94 )( + T3 61 ) ) )
(or ( <= ( + T3 178 )  ( + T6 94 ) ) ( <= ( + T6 131 )( + T3 99 ) ) )
(or ( <= ( + T3 269 )  ( + T6 131 ) ) ( <= ( + T6 207 )( + T3 178 ) ) )
(or ( <= ( + T3 298 )  ( + T6 207 ) ) ( <= ( + T6 295 )( + T3 269 ) ) )
(or ( <= ( + T3 303 )  ( + T6 295 ) ) ( <= ( + T6 348 )( + T3 298 ) ) )
(or ( <= ( + T3 368 )  ( + T6 348 ) ) ( <= ( + T6 422 )( + T3 303 ) ) )
(or ( <= ( + T3 370 )  ( + T6 422 ) ) ( <= ( + T6 491 )( + T3 368 ) ) )
(or ( <= ( + T3 460 )  ( + T6 491 ) ) ( <= ( + T6 547 )( + T3 370 ) ) )
(or ( <= ( + T3 490 )  ( + T6 547 ) ) ( <= ( + T6 606 )( + T3 460 ) ) )
(or ( <= ( + T3 507 )  ( + T6 606 ) ) ( <= ( + T6 626 )( + T3 490 ) ) )
(or ( <= ( + T3 606 )  ( + T6 626 ) ) ( <= ( + T6 695 )( + T3 507 ) ) )
(or ( <= ( + T3 61 ) T7 ) ( <= ( + T7 37 ) T3 ) )
(or ( <= ( + T3 99 )  ( + T7 37 ) ) ( <= ( + T7 128 )( + T3 61 ) ) )
(or ( <= ( + T3 178 )  ( + T7 128 ) ) ( <= ( + T7 132 )( + T3 99 ) ) )
(or ( <= ( + T3 269 )  ( + T7 132 ) ) ( <= ( + T7 171 )( + T3 178 ) ) )
(or ( <= ( + T3 298 )  ( + T7 171 ) ) ( <= ( + T7 204 )( + T3 269 ) ) )
(or ( <= ( + T3 303 )  ( + T7 204 ) ) ( <= ( + T7 292 )( + T3 298 ) ) )
(or ( <= ( + T3 368 )  ( + T7 292 ) ) ( <= ( + T7 300 )( + T3 303 ) ) )
(or ( <= ( + T3 370 )  ( + T7 300 ) ) ( <= ( + T7 348 )( + T3 368 ) ) )
(or ( <= ( + T3 460 )  ( + T7 348 ) ) ( <= ( + T7 357 )( + T3 370 ) ) )
(or ( <= ( + T3 490 )  ( + T7 357 ) ) ( <= ( + T7 410 )( + T3 460 ) ) )
(or ( <= ( + T3 507 )  ( + T7 410 ) ) ( <= ( + T7 476 )( + T3 490 ) ) )
(or ( <= ( + T3 606 )  ( + T7 476 ) ) ( <= ( + T7 527 )( + T3 507 ) ) )
(or ( <= ( + T3 61 ) T8 ) ( <= ( + T8 18 ) T3 ) )
(or ( <= ( + T3 99 )  ( + T8 18 ) ) ( <= ( + T8 36 )( + T3 61 ) ) )
(or ( <= ( + T3 178 )  ( + T8 36 ) ) ( <= ( + T8 38 )( + T3 99 ) ) )
(or ( <= ( + T3 269 )  ( + T8 38 ) ) ( <= ( + T8 63 )( + T3 178 ) ) )
(or ( <= ( + T3 298 )  ( + T8 63 ) ) ( <= ( + T8 111 )( + T3 269 ) ) )
(or ( <= ( + T3 303 )  ( + T8 111 ) ) ( <= ( + T8 159 )( + T3 298 ) ) )
(or ( <= ( + T3 368 )  ( + T8 159 ) ) ( <= ( + T8 167 )( + T3 303 ) ) )
(or ( <= ( + T3 370 )  ( + T8 167 ) ) ( <= ( + T8 249 )( + T3 368 ) ) )
(or ( <= ( + T3 460 )  ( + T8 249 ) ) ( <= ( + T8 255 )( + T3 370 ) ) )
(or ( <= ( + T3 490 )  ( + T8 255 ) ) ( <= ( + T8 351 )( + T3 460 ) ) )
(or ( <= ( + T3 507 )  ( + T8 351 ) ) ( <= ( + T8 360 )( + T3 490 ) ) )
(or ( <= ( + T3 606 )  ( + T8 360 ) ) ( <= ( + T8 405 )( + T3 507 ) ) )
(or ( <= ( + T3 61 ) T9 ) ( <= ( + T9 48 ) T3 ) )
(or ( <= ( + T3 99 )  ( + T9 48 ) ) ( <= ( + T9 83 )( + T3 61 ) ) )
(or ( <= ( + T3 178 )  ( + T9 83 ) ) ( <= ( + T9 148 )( + T3 99 ) ) )
(or ( <= ( + T3 269 )  ( + T9 148 ) ) ( <= ( + T9 203 )( + T3 178 ) ) )
(or ( <= ( + T3 298 )  ( + T9 203 ) ) ( <= ( + T9 296 )( + T3 269 ) ) )
(or ( <= ( + T3 303 )  ( + T9 296 ) ) ( <= ( + T9 380 )( + T3 298 ) ) )
(or ( <= ( + T3 368 )  ( + T9 380 ) ) ( <= ( + T9 456 )( + T3 303 ) ) )
(or ( <= ( + T3 370 )  ( + T9 456 ) ) ( <= ( + T9 485 )( + T3 368 ) ) )
(or ( <= ( + T3 460 )  ( + T9 485 ) ) ( <= ( + T9 511 )( + T3 370 ) ) )
(or ( <= ( + T3 490 )  ( + T9 511 ) ) ( <= ( + T9 590 )( + T3 460 ) ) )
(or ( <= ( + T3 507 )  ( + T9 590 ) ) ( <= ( + T9 609 )( + T3 490 ) ) )
(or ( <= ( + T3 606 )  ( + T9 609 ) ) ( <= ( + T9 619 )( + T3 507 ) ) )
(or ( <= ( + T3 61 ) T10 ) ( <= ( + T10 18 ) T3 ) )
(or ( <= ( + T3 99 )  ( + T10 18 ) ) ( <= ( + T10 96 )( + T3 61 ) ) )
(or ( <= ( + T3 178 )  ( + T10 96 ) ) ( <= ( + T10 154 )( + T3 99 ) ) )
(or ( <= ( + T3 269 )  ( + T10 154 ) ) ( <= ( + T10 180 )( + T3 178 ) ) )
(or ( <= ( + T3 298 )  ( + T10 180 ) ) ( <= ( + T10 211 )( + T3 269 ) ) )
(or ( <= ( + T3 303 )  ( + T10 211 ) ) ( <= ( + T10 286 )( + T3 298 ) ) )
(or ( <= ( + T3 368 )  ( + T10 286 ) ) ( <= ( + T10 363 )( + T3 303 ) ) )
(or ( <= ( + T3 370 )  ( + T10 363 ) ) ( <= ( + T10 463 )( + T3 368 ) ) )
(or ( <= ( + T3 460 )  ( + T10 463 ) ) ( <= ( + T10 556 )( + T3 370 ) ) )
(or ( <= ( + T3 490 )  ( + T10 556 ) ) ( <= ( + T10 586 )( + T3 460 ) ) )
(or ( <= ( + T3 507 )  ( + T10 586 ) ) ( <= ( + T10 610 )( + T3 490 ) ) )
(or ( <= ( + T3 606 )  ( + T10 610 ) ) ( <= ( + T10 650 )( + T3 507 ) ) )
(or ( <= ( + T4 30 ) T5 ) ( <= ( + T5 64 ) T4 ) )
(or ( <= ( + T4 34 )  ( + T5 64 ) ) ( <= ( + T5 85 )( + T4 30 ) ) )
(or ( <= ( + T4 67 )  ( + T5 85 ) ) ( <= ( + T5 179 )( + T4 34 ) ) )
(or ( <= ( + T4 167 )  ( + T5 179 ) ) ( <= ( + T5 198 )( + T4 67 ) ) )
(or ( <= ( + T4 229 )  ( + T5 198 ) ) ( <= ( + T5 289 )( + T4 167 ) ) )
(or ( <= ( + T4 256 )  ( + T5 289 ) ) ( <= ( + T5 355 )( + T4 229 ) ) )
(or ( <= ( + T4 328 )  ( + T5 355 ) ) ( <= ( + T5 356 )( + T4 256 ) ) )
(or ( <= ( + T4 363 )  ( + T5 356 ) ) ( <= ( + T5 408 )( + T4 328 ) ) )
(or ( <= ( + T4 365 )  ( + T5 408 ) ) ( <= ( + T5 463 )( + T4 363 ) ) )
(or ( <= ( + T4 455 )  ( + T5 463 ) ) ( <= ( + T5 542 )( + T4 365 ) ) )
(or ( <= ( + T4 488 )  ( + T5 542 ) ) ( <= ( + T5 636 )( + T4 455 ) ) )
(or ( <= ( + T4 558 )  ( + T5 636 ) ) ( <= ( + T5 720 )( + T4 488 ) ) )
(or ( <= ( + T4 30 ) T6 ) ( <= ( + T6 35 ) T4 ) )
(or ( <= ( + T4 34 )  ( + T6 35 ) ) ( <= ( + T6 94 )( + T4 30 ) ) )
(or ( <= ( + T4 67 )  ( + T6 94 ) ) ( <= ( + T6 131 )( + T4 34 ) ) )
(or ( <= ( + T4 167 )  ( + T6 131 ) ) ( <= ( + T6 207 )( + T4 67 ) ) )
(or ( <= ( + T4 229 )  ( + T6 207 ) ) ( <= ( + T6 295 )( + T4 167 ) ) )
(or ( <= ( + T4 256 )  ( + T6 295 ) ) ( <= ( + T6 348 )( + T4 229 ) ) )
(or ( <= ( + T4 328 )  ( + T6 348 ) ) ( <= ( + T6 422 )( + T4 256 ) ) )
(or ( <= ( + T4 363 )  ( + T6 422 ) ) ( <= ( + T6 491 )( + T4 328 ) ) )
(or ( <= ( + T4 365 )  ( + T6 491 ) ) ( <= ( + T6 547 )( + T4 363 ) ) )
(or ( <= ( + T4 455 )  ( + T6 547 ) ) ( <= ( + T6 606 )( + T4 365 ) ) )
(or ( <= ( + T4 488 )  ( + T6 606 ) ) ( <= ( + T6 626 )( + T4 455 ) ) )
(or ( <= ( + T4 558 )  ( + T6 626 ) ) ( <= ( + T6 695 )( + T4 488 ) ) )
(or ( <= ( + T4 30 ) T7 ) ( <= ( + T7 37 ) T4 ) )
(or ( <= ( + T4 34 )  ( + T7 37 ) ) ( <= ( + T7 128 )( + T4 30 ) ) )
(or ( <= ( + T4 67 )  ( + T7 128 ) ) ( <= ( + T7 132 )( + T4 34 ) ) )
(or ( <= ( + T4 167 )  ( + T7 132 ) ) ( <= ( + T7 171 )( + T4 67 ) ) )
(or ( <= ( + T4 229 )  ( + T7 171 ) ) ( <= ( + T7 204 )( + T4 167 ) ) )
(or ( <= ( + T4 256 )  ( + T7 204 ) ) ( <= ( + T7 292 )( + T4 229 ) ) )
(or ( <= ( + T4 328 )  ( + T7 292 ) ) ( <= ( + T7 300 )( + T4 256 ) ) )
(or ( <= ( + T4 363 )  ( + T7 300 ) ) ( <= ( + T7 348 )( + T4 328 ) ) )
(or ( <= ( + T4 365 )  ( + T7 348 ) ) ( <= ( + T7 357 )( + T4 363 ) ) )
(or ( <= ( + T4 455 )  ( + T7 357 ) ) ( <= ( + T7 410 )( + T4 365 ) ) )
(or ( <= ( + T4 488 )  ( + T7 410 ) ) ( <= ( + T7 476 )( + T4 455 ) ) )
(or ( <= ( + T4 558 )  ( + T7 476 ) ) ( <= ( + T7 527 )( + T4 488 ) ) )
(or ( <= ( + T4 30 ) T8 ) ( <= ( + T8 18 ) T4 ) )
(or ( <= ( + T4 34 )  ( + T8 18 ) ) ( <= ( + T8 36 )( + T4 30 ) ) )
(or ( <= ( + T4 67 )  ( + T8 36 ) ) ( <= ( + T8 38 )( + T4 34 ) ) )
(or ( <= ( + T4 167 )  ( + T8 38 ) ) ( <= ( + T8 63 )( + T4 67 ) ) )
(or ( <= ( + T4 229 )  ( + T8 63 ) ) ( <= ( + T8 111 )( + T4 167 ) ) )
(or ( <= ( + T4 256 )  ( + T8 111 ) ) ( <= ( + T8 159 )( + T4 229 ) ) )
(or ( <= ( + T4 328 )  ( + T8 159 ) ) ( <= ( + T8 167 )( + T4 256 ) ) )
(or ( <= ( + T4 363 )  ( + T8 167 ) ) ( <= ( + T8 249 )( + T4 328 ) ) )
(or ( <= ( + T4 365 )  ( + T8 249 ) ) ( <= ( + T8 255 )( + T4 363 ) ) )
(or ( <= ( + T4 455 )  ( + T8 255 ) ) ( <= ( + T8 351 )( + T4 365 ) ) )
(or ( <= ( + T4 488 )  ( + T8 351 ) ) ( <= ( + T8 360 )( + T4 455 ) ) )
(or ( <= ( + T4 558 )  ( + T8 360 ) ) ( <= ( + T8 405 )( + T4 488 ) ) )
(or ( <= ( + T4 30 ) T9 ) ( <= ( + T9 48 ) T4 ) )
(or ( <= ( + T4 34 )  ( + T9 48 ) ) ( <= ( + T9 83 )( + T4 30 ) ) )
(or ( <= ( + T4 67 )  ( + T9 83 ) ) ( <= ( + T9 148 )( + T4 34 ) ) )
(or ( <= ( + T4 167 )  ( + T9 148 ) ) ( <= ( + T9 203 )( + T4 67 ) ) )
(or ( <= ( + T4 229 )  ( + T9 203 ) ) ( <= ( + T9 296 )( + T4 167 ) ) )
(or ( <= ( + T4 256 )  ( + T9 296 ) ) ( <= ( + T9 380 )( + T4 229 ) ) )
(or ( <= ( + T4 328 )  ( + T9 380 ) ) ( <= ( + T9 456 )( + T4 256 ) ) )
(or ( <= ( + T4 363 )  ( + T9 456 ) ) ( <= ( + T9 485 )( + T4 328 ) ) )
(or ( <= ( + T4 365 )  ( + T9 485 ) ) ( <= ( + T9 511 )( + T4 363 ) ) )
(or ( <= ( + T4 455 )  ( + T9 511 ) ) ( <= ( + T9 590 )( + T4 365 ) ) )
(or ( <= ( + T4 488 )  ( + T9 590 ) ) ( <= ( + T9 609 )( + T4 455 ) ) )
(or ( <= ( + T4 558 )  ( + T9 609 ) ) ( <= ( + T9 619 )( + T4 488 ) ) )
(or ( <= ( + T4 30 ) T10 ) ( <= ( + T10 18 ) T4 ) )
(or ( <= ( + T4 34 )  ( + T10 18 ) ) ( <= ( + T10 96 )( + T4 30 ) ) )
(or ( <= ( + T4 67 )  ( + T10 96 ) ) ( <= ( + T10 154 )( + T4 34 ) ) )
(or ( <= ( + T4 167 )  ( + T10 154 ) ) ( <= ( + T10 180 )( + T4 67 ) ) )
(or ( <= ( + T4 229 )  ( + T10 180 ) ) ( <= ( + T10 211 )( + T4 167 ) ) )
(or ( <= ( + T4 256 )  ( + T10 211 ) ) ( <= ( + T10 286 )( + T4 229 ) ) )
(or ( <= ( + T4 328 )  ( + T10 286 ) ) ( <= ( + T10 363 )( + T4 256 ) ) )
(or ( <= ( + T4 363 )  ( + T10 363 ) ) ( <= ( + T10 463 )( + T4 328 ) ) )
(or ( <= ( + T4 365 )  ( + T10 463 ) ) ( <= ( + T10 556 )( + T4 363 ) ) )
(or ( <= ( + T4 455 )  ( + T10 556 ) ) ( <= ( + T10 586 )( + T4 365 ) ) )
(or ( <= ( + T4 488 )  ( + T10 586 ) ) ( <= ( + T10 610 )( + T4 455 ) ) )
(or ( <= ( + T4 558 )  ( + T10 610 ) ) ( <= ( + T10 650 )( + T4 488 ) ) )
(or ( <= ( + T5 64 ) T6 ) ( <= ( + T6 35 ) T5 ) )
(or ( <= ( + T5 85 )  ( + T6 35 ) ) ( <= ( + T6 94 )( + T5 64 ) ) )
(or ( <= ( + T5 179 )  ( + T6 94 ) ) ( <= ( + T6 131 )( + T5 85 ) ) )
(or ( <= ( + T5 198 )  ( + T6 131 ) ) ( <= ( + T6 207 )( + T5 179 ) ) )
(or ( <= ( + T5 289 )  ( + T6 207 ) ) ( <= ( + T6 295 )( + T5 198 ) ) )
(or ( <= ( + T5 355 )  ( + T6 295 ) ) ( <= ( + T6 348 )( + T5 289 ) ) )
(or ( <= ( + T5 356 )  ( + T6 348 ) ) ( <= ( + T6 422 )( + T5 355 ) ) )
(or ( <= ( + T5 408 )  ( + T6 422 ) ) ( <= ( + T6 491 )( + T5 356 ) ) )
(or ( <= ( + T5 463 )  ( + T6 491 ) ) ( <= ( + T6 547 )( + T5 408 ) ) )
(or ( <= ( + T5 542 )  ( + T6 547 ) ) ( <= ( + T6 606 )( + T5 463 ) ) )
(or ( <= ( + T5 636 )  ( + T6 606 ) ) ( <= ( + T6 626 )( + T5 542 ) ) )
(or ( <= ( + T5 720 )  ( + T6 626 ) ) ( <= ( + T6 695 )( + T5 636 ) ) )
(or ( <= ( + T5 64 ) T7 ) ( <= ( + T7 37 ) T5 ) )
(or ( <= ( + T5 85 )  ( + T7 37 ) ) ( <= ( + T7 128 )( + T5 64 ) ) )
(or ( <= ( + T5 179 )  ( + T7 128 ) ) ( <= ( + T7 132 )( + T5 85 ) ) )
(or ( <= ( + T5 198 )  ( + T7 132 ) ) ( <= ( + T7 171 )( + T5 179 ) ) )
(or ( <= ( + T5 289 )  ( + T7 171 ) ) ( <= ( + T7 204 )( + T5 198 ) ) )
(or ( <= ( + T5 355 )  ( + T7 204 ) ) ( <= ( + T7 292 )( + T5 289 ) ) )
(or ( <= ( + T5 356 )  ( + T7 292 ) ) ( <= ( + T7 300 )( + T5 355 ) ) )
(or ( <= ( + T5 408 )  ( + T7 300 ) ) ( <= ( + T7 348 )( + T5 356 ) ) )
(or ( <= ( + T5 463 )  ( + T7 348 ) ) ( <= ( + T7 357 )( + T5 408 ) ) )
(or ( <= ( + T5 542 )  ( + T7 357 ) ) ( <= ( + T7 410 )( + T5 463 ) ) )
(or ( <= ( + T5 636 )  ( + T7 410 ) ) ( <= ( + T7 476 )( + T5 542 ) ) )
(or ( <= ( + T5 720 )  ( + T7 476 ) ) ( <= ( + T7 527 )( + T5 636 ) ) )
(or ( <= ( + T5 64 ) T8 ) ( <= ( + T8 18 ) T5 ) )
(or ( <= ( + T5 85 )  ( + T8 18 ) ) ( <= ( + T8 36 )( + T5 64 ) ) )
(or ( <= ( + T5 179 )  ( + T8 36 ) ) ( <= ( + T8 38 )( + T5 85 ) ) )
(or ( <= ( + T5 198 )  ( + T8 38 ) ) ( <= ( + T8 63 )( + T5 179 ) ) )
(or ( <= ( + T5 289 )  ( + T8 63 ) ) ( <= ( + T8 111 )( + T5 198 ) ) )
(or ( <= ( + T5 355 )  ( + T8 111 ) ) ( <= ( + T8 159 )( + T5 289 ) ) )
(or ( <= ( + T5 356 )  ( + T8 159 ) ) ( <= ( + T8 167 )( + T5 355 ) ) )
(or ( <= ( + T5 408 )  ( + T8 167 ) ) ( <= ( + T8 249 )( + T5 356 ) ) )
(or ( <= ( + T5 463 )  ( + T8 249 ) ) ( <= ( + T8 255 )( + T5 408 ) ) )
(or ( <= ( + T5 542 )  ( + T8 255 ) ) ( <= ( + T8 351 )( + T5 463 ) ) )
(or ( <= ( + T5 636 )  ( + T8 351 ) ) ( <= ( + T8 360 )( + T5 542 ) ) )
(or ( <= ( + T5 720 )  ( + T8 360 ) ) ( <= ( + T8 405 )( + T5 636 ) ) )
(or ( <= ( + T5 64 ) T9 ) ( <= ( + T9 48 ) T5 ) )
(or ( <= ( + T5 85 )  ( + T9 48 ) ) ( <= ( + T9 83 )( + T5 64 ) ) )
(or ( <= ( + T5 179 )  ( + T9 83 ) ) ( <= ( + T9 148 )( + T5 85 ) ) )
(or ( <= ( + T5 198 )  ( + T9 148 ) ) ( <= ( + T9 203 )( + T5 179 ) ) )
(or ( <= ( + T5 289 )  ( + T9 203 ) ) ( <= ( + T9 296 )( + T5 198 ) ) )
(or ( <= ( + T5 355 )  ( + T9 296 ) ) ( <= ( + T9 380 )( + T5 289 ) ) )
(or ( <= ( + T5 356 )  ( + T9 380 ) ) ( <= ( + T9 456 )( + T5 355 ) ) )
(or ( <= ( + T5 408 )  ( + T9 456 ) ) ( <= ( + T9 485 )( + T5 356 ) ) )
(or ( <= ( + T5 463 )  ( + T9 485 ) ) ( <= ( + T9 511 )( + T5 408 ) ) )
(or ( <= ( + T5 542 )  ( + T9 511 ) ) ( <= ( + T9 590 )( + T5 463 ) ) )
(or ( <= ( + T5 636 )  ( + T9 590 ) ) ( <= ( + T9 609 )( + T5 542 ) ) )
(or ( <= ( + T5 720 )  ( + T9 609 ) ) ( <= ( + T9 619 )( + T5 636 ) ) )
(or ( <= ( + T5 64 ) T10 ) ( <= ( + T10 18 ) T5 ) )
(or ( <= ( + T5 85 )  ( + T10 18 ) ) ( <= ( + T10 96 )( + T5 64 ) ) )
(or ( <= ( + T5 179 )  ( + T10 96 ) ) ( <= ( + T10 154 )( + T5 85 ) ) )
(or ( <= ( + T5 198 )  ( + T10 154 ) ) ( <= ( + T10 180 )( + T5 179 ) ) )
(or ( <= ( + T5 289 )  ( + T10 180 ) ) ( <= ( + T10 211 )( + T5 198 ) ) )
(or ( <= ( + T5 355 )  ( + T10 211 ) ) ( <= ( + T10 286 )( + T5 289 ) ) )
(or ( <= ( + T5 356 )  ( + T10 286 ) ) ( <= ( + T10 363 )( + T5 355 ) ) )
(or ( <= ( + T5 408 )  ( + T10 363 ) ) ( <= ( + T10 463 )( + T5 356 ) ) )
(or ( <= ( + T5 463 )  ( + T10 463 ) ) ( <= ( + T10 556 )( + T5 408 ) ) )
(or ( <= ( + T5 542 )  ( + T10 556 ) ) ( <= ( + T10 586 )( + T5 463 ) ) )
(or ( <= ( + T5 636 )  ( + T10 586 ) ) ( <= ( + T10 610 )( + T5 542 ) ) )
(or ( <= ( + T5 720 )  ( + T10 610 ) ) ( <= ( + T10 650 )( + T5 636 ) ) )
(or ( <= ( + T6 35 ) T7 ) ( <= ( + T7 37 ) T6 ) )
(or ( <= ( + T6 94 )  ( + T7 37 ) ) ( <= ( + T7 128 )( + T6 35 ) ) )
(or ( <= ( + T6 131 )  ( + T7 128 ) ) ( <= ( + T7 132 )( + T6 94 ) ) )
(or ( <= ( + T6 207 )  ( + T7 132 ) ) ( <= ( + T7 171 )( + T6 131 ) ) )
(or ( <= ( + T6 295 )  ( + T7 171 ) ) ( <= ( + T7 204 )( + T6 207 ) ) )
(or ( <= ( + T6 348 )  ( + T7 204 ) ) ( <= ( + T7 292 )( + T6 295 ) ) )
(or ( <= ( + T6 422 )  ( + T7 292 ) ) ( <= ( + T7 300 )( + T6 348 ) ) )
(or ( <= ( + T6 491 )  ( + T7 300 ) ) ( <= ( + T7 348 )( + T6 422 ) ) )
(or ( <= ( + T6 547 )  ( + T7 348 ) ) ( <= ( + T7 357 )( + T6 491 ) ) )
(or ( <= ( + T6 606 )  ( + T7 357 ) ) ( <= ( + T7 410 )( + T6 547 ) ) )
(or ( <= ( + T6 626 )  ( + T7 410 ) ) ( <= ( + T7 476 )( + T6 606 ) ) )
(or ( <= ( + T6 695 )  ( + T7 476 ) ) ( <= ( + T7 527 )( + T6 626 ) ) )
(or ( <= ( + T6 35 ) T8 ) ( <= ( + T8 18 ) T6 ) )
(or ( <= ( + T6 94 )  ( + T8 18 ) ) ( <= ( + T8 36 )( + T6 35 ) ) )
(or ( <= ( + T6 131 )  ( + T8 36 ) ) ( <= ( + T8 38 )( + T6 94 ) ) )
(or ( <= ( + T6 207 )  ( + T8 38 ) ) ( <= ( + T8 63 )( + T6 131 ) ) )
(or ( <= ( + T6 295 )  ( + T8 63 ) ) ( <= ( + T8 111 )( + T6 207 ) ) )
(or ( <= ( + T6 348 )  ( + T8 111 ) ) ( <= ( + T8 159 )( + T6 295 ) ) )
(or ( <= ( + T6 422 )  ( + T8 159 ) ) ( <= ( + T8 167 )( + T6 348 ) ) )
(or ( <= ( + T6 491 )  ( + T8 167 ) ) ( <= ( + T8 249 )( + T6 422 ) ) )
(or ( <= ( + T6 547 )  ( + T8 249 ) ) ( <= ( + T8 255 )( + T6 491 ) ) )
(or ( <= ( + T6 606 )  ( + T8 255 ) ) ( <= ( + T8 351 )( + T6 547 ) ) )
(or ( <= ( + T6 626 )  ( + T8 351 ) ) ( <= ( + T8 360 )( + T6 606 ) ) )
(or ( <= ( + T6 695 )  ( + T8 360 ) ) ( <= ( + T8 405 )( + T6 626 ) ) )
(or ( <= ( + T6 35 ) T9 ) ( <= ( + T9 48 ) T6 ) )
(or ( <= ( + T6 94 )  ( + T9 48 ) ) ( <= ( + T9 83 )( + T6 35 ) ) )
(or ( <= ( + T6 131 )  ( + T9 83 ) ) ( <= ( + T9 148 )( + T6 94 ) ) )
(or ( <= ( + T6 207 )  ( + T9 148 ) ) ( <= ( + T9 203 )( + T6 131 ) ) )
(or ( <= ( + T6 295 )  ( + T9 203 ) ) ( <= ( + T9 296 )( + T6 207 ) ) )
(or ( <= ( + T6 348 )  ( + T9 296 ) ) ( <= ( + T9 380 )( + T6 295 ) ) )
(or ( <= ( + T6 422 )  ( + T9 380 ) ) ( <= ( + T9 456 )( + T6 348 ) ) )
(or ( <= ( + T6 491 )  ( + T9 456 ) ) ( <= ( + T9 485 )( + T6 422 ) ) )
(or ( <= ( + T6 547 )  ( + T9 485 ) ) ( <= ( + T9 511 )( + T6 491 ) ) )
(or ( <= ( + T6 606 )  ( + T9 511 ) ) ( <= ( + T9 590 )( + T6 547 ) ) )
(or ( <= ( + T6 626 )  ( + T9 590 ) ) ( <= ( + T9 609 )( + T6 606 ) ) )
(or ( <= ( + T6 695 )  ( + T9 609 ) ) ( <= ( + T9 619 )( + T6 626 ) ) )
(or ( <= ( + T6 35 ) T10 ) ( <= ( + T10 18 ) T6 ) )
(or ( <= ( + T6 94 )  ( + T10 18 ) ) ( <= ( + T10 96 )( + T6 35 ) ) )
(or ( <= ( + T6 131 )  ( + T10 96 ) ) ( <= ( + T10 154 )( + T6 94 ) ) )
(or ( <= ( + T6 207 )  ( + T10 154 ) ) ( <= ( + T10 180 )( + T6 131 ) ) )
(or ( <= ( + T6 295 )  ( + T10 180 ) ) ( <= ( + T10 211 )( + T6 207 ) ) )
(or ( <= ( + T6 348 )  ( + T10 211 ) ) ( <= ( + T10 286 )( + T6 295 ) ) )
(or ( <= ( + T6 422 )  ( + T10 286 ) ) ( <= ( + T10 363 )( + T6 348 ) ) )
(or ( <= ( + T6 491 )  ( + T10 363 ) ) ( <= ( + T10 463 )( + T6 422 ) ) )
(or ( <= ( + T6 547 )  ( + T10 463 ) ) ( <= ( + T10 556 )( + T6 491 ) ) )
(or ( <= ( + T6 606 )  ( + T10 556 ) ) ( <= ( + T10 586 )( + T6 547 ) ) )
(or ( <= ( + T6 626 )  ( + T10 586 ) ) ( <= ( + T10 610 )( + T6 606 ) ) )
(or ( <= ( + T6 695 )  ( + T10 610 ) ) ( <= ( + T10 650 )( + T6 626 ) ) )
(or ( <= ( + T7 37 ) T8 ) ( <= ( + T8 18 ) T7 ) )
(or ( <= ( + T7 128 )  ( + T8 18 ) ) ( <= ( + T8 36 )( + T7 37 ) ) )
(or ( <= ( + T7 132 )  ( + T8 36 ) ) ( <= ( + T8 38 )( + T7 128 ) ) )
(or ( <= ( + T7 171 )  ( + T8 38 ) ) ( <= ( + T8 63 )( + T7 132 ) ) )
(or ( <= ( + T7 204 )  ( + T8 63 ) ) ( <= ( + T8 111 )( + T7 171 ) ) )
(or ( <= ( + T7 292 )  ( + T8 111 ) ) ( <= ( + T8 159 )( + T7 204 ) ) )
(or ( <= ( + T7 300 )  ( + T8 159 ) ) ( <= ( + T8 167 )( + T7 292 ) ) )
(or ( <= ( + T7 348 )  ( + T8 167 ) ) ( <= ( + T8 249 )( + T7 300 ) ) )
(or ( <= ( + T7 357 )  ( + T8 249 ) ) ( <= ( + T8 255 )( + T7 348 ) ) )
(or ( <= ( + T7 410 )  ( + T8 255 ) ) ( <= ( + T8 351 )( + T7 357 ) ) )
(or ( <= ( + T7 476 )  ( + T8 351 ) ) ( <= ( + T8 360 )( + T7 410 ) ) )
(or ( <= ( + T7 527 )  ( + T8 360 ) ) ( <= ( + T8 405 )( + T7 476 ) ) )
(or ( <= ( + T7 37 ) T9 ) ( <= ( + T9 48 ) T7 ) )
(or ( <= ( + T7 128 )  ( + T9 48 ) ) ( <= ( + T9 83 )( + T7 37 ) ) )
(or ( <= ( + T7 132 )  ( + T9 83 ) ) ( <= ( + T9 148 )( + T7 128 ) ) )
(or ( <= ( + T7 171 )  ( + T9 148 ) ) ( <= ( + T9 203 )( + T7 132 ) ) )
(or ( <= ( + T7 204 )  ( + T9 203 ) ) ( <= ( + T9 296 )( + T7 171 ) ) )
(or ( <= ( + T7 292 )  ( + T9 296 ) ) ( <= ( + T9 380 )( + T7 204 ) ) )
(or ( <= ( + T7 300 )  ( + T9 380 ) ) ( <= ( + T9 456 )( + T7 292 ) ) )
(or ( <= ( + T7 348 )  ( + T9 456 ) ) ( <= ( + T9 485 )( + T7 300 ) ) )
(or ( <= ( + T7 357 )  ( + T9 485 ) ) ( <= ( + T9 511 )( + T7 348 ) ) )
(or ( <= ( + T7 410 )  ( + T9 511 ) ) ( <= ( + T9 590 )( + T7 357 ) ) )
(or ( <= ( + T7 476 )  ( + T9 590 ) ) ( <= ( + T9 609 )( + T7 410 ) ) )
(or ( <= ( + T7 527 )  ( + T9 609 ) ) ( <= ( + T9 619 )( + T7 476 ) ) )
(or ( <= ( + T7 37 ) T10 ) ( <= ( + T10 18 ) T7 ) )
(or ( <= ( + T7 128 )  ( + T10 18 ) ) ( <= ( + T10 96 )( + T7 37 ) ) )
(or ( <= ( + T7 132 )  ( + T10 96 ) ) ( <= ( + T10 154 )( + T7 128 ) ) )
(or ( <= ( + T7 171 )  ( + T10 154 ) ) ( <= ( + T10 180 )( + T7 132 ) ) )
(or ( <= ( + T7 204 )  ( + T10 180 ) ) ( <= ( + T10 211 )( + T7 171 ) ) )
(or ( <= ( + T7 292 )  ( + T10 211 ) ) ( <= ( + T10 286 )( + T7 204 ) ) )
(or ( <= ( + T7 300 )  ( + T10 286 ) ) ( <= ( + T10 363 )( + T7 292 ) ) )
(or ( <= ( + T7 348 )  ( + T10 363 ) ) ( <= ( + T10 463 )( + T7 300 ) ) )
(or ( <= ( + T7 357 )  ( + T10 463 ) ) ( <= ( + T10 556 )( + T7 348 ) ) )
(or ( <= ( + T7 410 )  ( + T10 556 ) ) ( <= ( + T10 586 )( + T7 357 ) ) )
(or ( <= ( + T7 476 )  ( + T10 586 ) ) ( <= ( + T10 610 )( + T7 410 ) ) )
(or ( <= ( + T7 527 )  ( + T10 610 ) ) ( <= ( + T10 650 )( + T7 476 ) ) )
(or ( <= ( + T8 18 ) T9 ) ( <= ( + T9 48 ) T8 ) )
(or ( <= ( + T8 36 )  ( + T9 48 ) ) ( <= ( + T9 83 )( + T8 18 ) ) )
(or ( <= ( + T8 38 )  ( + T9 83 ) ) ( <= ( + T9 148 )( + T8 36 ) ) )
(or ( <= ( + T8 63 )  ( + T9 148 ) ) ( <= ( + T9 203 )( + T8 38 ) ) )
(or ( <= ( + T8 111 )  ( + T9 203 ) ) ( <= ( + T9 296 )( + T8 63 ) ) )
(or ( <= ( + T8 159 )  ( + T9 296 ) ) ( <= ( + T9 380 )( + T8 111 ) ) )
(or ( <= ( + T8 167 )  ( + T9 380 ) ) ( <= ( + T9 456 )( + T8 159 ) ) )
(or ( <= ( + T8 249 )  ( + T9 456 ) ) ( <= ( + T9 485 )( + T8 167 ) ) )
(or ( <= ( + T8 255 )  ( + T9 485 ) ) ( <= ( + T9 511 )( + T8 249 ) ) )
(or ( <= ( + T8 351 )  ( + T9 511 ) ) ( <= ( + T9 590 )( + T8 255 ) ) )
(or ( <= ( + T8 360 )  ( + T9 590 ) ) ( <= ( + T9 609 )( + T8 351 ) ) )
(or ( <= ( + T8 405 )  ( + T9 609 ) ) ( <= ( + T9 619 )( + T8 360 ) ) )
(or ( <= ( + T8 18 ) T10 ) ( <= ( + T10 18 ) T8 ) )
(or ( <= ( + T8 36 )  ( + T10 18 ) ) ( <= ( + T10 96 )( + T8 18 ) ) )
(or ( <= ( + T8 38 )  ( + T10 96 ) ) ( <= ( + T10 154 )( + T8 36 ) ) )
(or ( <= ( + T8 63 )  ( + T10 154 ) ) ( <= ( + T10 180 )( + T8 38 ) ) )
(or ( <= ( + T8 111 )  ( + T10 180 ) ) ( <= ( + T10 211 )( + T8 63 ) ) )
(or ( <= ( + T8 159 )  ( + T10 211 ) ) ( <= ( + T10 286 )( + T8 111 ) ) )
(or ( <= ( + T8 167 )  ( + T10 286 ) ) ( <= ( + T10 363 )( + T8 159 ) ) )
(or ( <= ( + T8 249 )  ( + T10 363 ) ) ( <= ( + T10 463 )( + T8 167 ) ) )
(or ( <= ( + T8 255 )  ( + T10 463 ) ) ( <= ( + T10 556 )( + T8 249 ) ) )
(or ( <= ( + T8 351 )  ( + T10 556 ) ) ( <= ( + T10 586 )( + T8 255 ) ) )
(or ( <= ( + T8 360 )  ( + T10 586 ) ) ( <= ( + T10 610 )( + T8 351 ) ) )
(or ( <= ( + T8 405 )  ( + T10 610 ) ) ( <= ( + T10 650 )( + T8 360 ) ) )
(or ( <= ( + T9 48 ) T10 ) ( <= ( + T10 18 ) T9 ) )
(or ( <= ( + T9 83 )  ( + T10 18 ) ) ( <= ( + T10 96 )( + T9 48 ) ) )
(or ( <= ( + T9 148 )  ( + T10 96 ) ) ( <= ( + T10 154 )( + T9 83 ) ) )
(or ( <= ( + T9 203 )  ( + T10 154 ) ) ( <= ( + T10 180 )( + T9 148 ) ) )
(or ( <= ( + T9 296 )  ( + T10 180 ) ) ( <= ( + T10 211 )( + T9 203 ) ) )
(or ( <= ( + T9 380 )  ( + T10 211 ) ) ( <= ( + T10 286 )( + T9 296 ) ) )
(or ( <= ( + T9 456 )  ( + T10 286 ) ) ( <= ( + T10 363 )( + T9 380 ) ) )
(or ( <= ( + T9 485 )  ( + T10 363 ) ) ( <= ( + T10 463 )( + T9 456 ) ) )
(or ( <= ( + T9 511 )  ( + T10 463 ) ) ( <= ( + T10 556 )( + T9 485 ) ) )
(or ( <= ( + T9 590 )  ( + T10 556 ) ) ( <= ( + T10 586 )( + T9 511 ) ) )
(or ( <= ( + T9 609 )  ( + T10 586 ) ) ( <= ( + T10 610 )( + T9 590 ) ) )
(or ( <= ( + T9 619 )  ( + T10 610 ) ) ( <= ( + T10 650 )( + T9 609 ) ) )
( <= ( + T1 715 ) Z)
( <= ( + T2 490 ) Z)
( <= ( + T3 606 ) Z)
( <= ( + T4 558 ) Z)
( <= ( + T5 720 ) Z)
( <= ( + T6 695 ) Z)
( <= ( + T7 527 ) Z)
( <= ( + T8 405 ) Z)
( <= ( + T9 619 ) Z)
( <= ( + T10 650 ) Z)
( >= T1 0 )
( >= T2 0 )
( >= T3 0 )
( >= T4 0 )
( >= T5 0 )
( >= T6 0 )
( >= T7 0 )
( >= T8 0 )
( >= T9 0 )
( >= T10 0 )
) )
)(=> $phi $goal))))